* ENCODING=ISO-8859-1
NAME          CPLEX
ROWS
 N  obj1    
 G  c1      
 G  c2      
 G  c3      
 G  c4      
 G  c5      
 G  c6      
 G  c7      
 G  c8      
 G  c9      
 G  c10     
 G  c11     
 G  c12     
 G  c13     
 G  c14     
 G  c15     
 G  c16     
 G  c17     
 G  c18     
 G  c19     
 G  c20     
 G  c21     
 G  c22     
 G  c23     
 G  c24     
 G  c25     
 G  c26     
 G  c27     
 G  c28     
 G  c29     
 G  c30     
 G  c31     
 G  c32     
 G  c33     
 G  c34     
 G  c35     
 G  c36     
 G  c37     
 G  c38     
 G  c39     
 G  c40     
 G  c41     
 G  c42     
 G  c43     
 G  c44     
 G  c45     
 G  c46     
 G  c47     
 G  c48     
 G  c49     
 G  c50     
 G  c51     
 G  c52     
 G  c53     
 G  c54     
 G  c55     
 G  c56     
 G  c57     
 G  c58     
 G  c59     
 G  c60     
 G  c61     
 G  c62     
 G  c63     
 G  c64     
 G  c65     
 G  c66     
 G  c67     
 G  c68     
 G  c69     
 G  c70     
COLUMNS
    MARK0000  'MARKER'                 'INTORG'
    x1        obj1                            1
    x1        c10                           127
    x1        c30                           646
    x1        c37                           585
    x1        c40                           292
    x1        c41                           709
    x1        c61                           682
    x2        obj1                            1
    x2        c2                            799
    x2        c7                            476
    x2        c13                           146
    x2        c15                           459
    x2        c19                           274
    x2        c30                           224
    x2        c42                           134
    x2        c44                           676
    x2        c46                           152
    x2        c64                           787
    x2        c67                           884
    x3        obj1                            1
    x3        c2                            404
    x3        c4                            733
    x3        c6                            443
    x3        c11                           815
    x3        c12                           977
    x3        c21                           555
    x3        c34                           633
    x3        c48                           924
    x3        c51                           545
    x3        c56                           173
    x3        c59                           820
    x3        c66                           923
    x4        obj1                            1
    x4        c10                           688
    x4        c11                           143
    x4        c21                           613
    x4        c25                           715
    x4        c30                           289
    x4        c40                           118
    x4        c41                           697
    x4        c64                           157
    x5        obj1                            1
    x5        c4                            212
    x5        c12                           258
    x5        c17                           313
    x5        c25                           529
    x5        c27                           190
    x5        c29                           152
    x5        c30                           450
    x5        c49                           883
    x5        c68                           201
    x6        obj1                            1
    x6        c5                            688
    x6        c20                           250
    x6        c28                           833
    x6        c37                           163
    x6        c68                           275
    x6        c69                           784
    x7        obj1                            1
    x7        c15                           767
    x7        c49                           530
    x7        c56                           676
    x7        c59                           161
    x8        obj1                            1
    x8        c37                           601
    x8        c41                           263
    x8        c53                           796
    x9        obj1                            1
    x9        c4                            246
    x9        c10                           318
    x9        c19                           729
    x9        c20                           753
    x9        c21                           841
    x9        c23                           796
    x9        c42                           980
    x9        c57                           450
    x9        c63                           478
    x9        c69                           642
    x10       obj1                            1
    x10       c5                            204
    x10       c6                            476
    x10       c17                           109
    x10       c26                           226
    x10       c33                           439
    x10       c34                           289
    x10       c37                           435
    x10       c41                           200
    x10       c50                           444
    x10       c51                           175
    x10       c54                           865
    x10       c66                           824
    x11       obj1                            1
    x11       c1                            698
    x11       c16                           504
    x11       c17                           676
    x11       c26                           907
    x11       c63                           206
    x11       c68                           735
    x12       obj1                            1
    x12       c6                            830
    x12       c20                           463
    x12       c25                           100
    x12       c29                           139
    x12       c31                           386
    x12       c35                           119
    x12       c53                           235
    x13       obj1                            1
    x13       c19                           347
    x13       c20                           614
    x13       c24                           485
    x13       c28                           816
    x13       c31                           574
    x13       c37                           536
    x13       c55                           610
    x13       c57                           619
    x13       c58                           630
    x13       c61                           205
    x13       c66                           994
    x14       obj1                            1
    x14       c6                            575
    x14       c17                           880
    x14       c24                           306
    x14       c38                           472
    x14       c41                           103
    x14       c51                           511
    x14       c54                           461
    x15       obj1                            1
    x15       c2                            123
    x15       c3                            351
    x15       c5                            675
    x15       c6                            859
    x15       c15                           103
    x15       c16                           556
    x15       c20                           135
    x15       c29                           908
    x15       c38                           122
    x15       c41                           820
    x15       c47                           769
    x15       c58                           247
    x16       obj1                            1
    x16       c30                           730
    x16       c33                           744
    x16       c43                           488
    x16       c56                           756
    x16       c58                           530
    x16       c61                           244
    x16       c65                           472
    x16       c66                           653
    x16       c70                           920
    x17       obj1                            1
    x17       c1                            462
    x17       c2                            879
    x17       c5                            517
    x17       c24                           137
    x17       c36                           677
    x18       obj1                            1
    x18       c2                            877
    x18       c7                            797
    x18       c16                           327
    x18       c46                           778
    x18       c49                           344
    x18       c52                           652
    x18       c53                           566
    x19       obj1                            1
    x19       c3                            877
    x19       c18                           721
    x19       c27                           810
    x19       c29                           336
    x19       c41                           477
    x20       obj1                            1
    x20       c3                            709
    x20       c5                            789
    x20       c10                           332
    x20       c11                           676
    x20       c18                           523
    x20       c63                           257
    x21       obj1                            1
    x21       c4                            300
    x21       c13                           352
    x21       c28                           242
    x21       c36                           311
    x21       c41                           621
    x21       c43                           974
    x21       c60                           849
    x22       obj1                            1
    x22       c8                            973
    x22       c11                           183
    x22       c33                           935
    x22       c46                           390
    x22       c55                           452
    x22       c60                           548
    x23       obj1                            1
    x23       c39                           271
    x23       c52                           260
    x23       c59                           501
    x24       obj1                            1
    x24       c11                           284
    x24       c49                           384
    x24       c52                           869
    x24       c54                           762
    x24       c56                           195
    x24       c57                           611
    x24       c65                           626
    x24       c67                           749
    x24       c70                           101
    x25       obj1                            1
    x25       c12                           827
    x25       c47                           546
    x25       c67                           927
    x26       obj1                            1
    x26       c18                           328
    x26       c39                           363
    x26       c53                           362
    x26       c59                           504
    x26       c70                           531
    x27       obj1                            1
    x27       c4                            408
    x27       c9                            179
    x27       c32                           829
    x27       c37                           979
    x27       c69                           314
    x28       obj1                            1
    x28       c42                           718
    x28       c64                           379
    x29       obj1                            1
    x29       c3                            730
    x29       c10                           364
    x29       c14                           373
    x29       c18                           905
    x29       c22                           388
    x29       c31                           642
    x29       c40                           389
    x29       c55                           512
    x29       c66                           546
    x30       obj1                            1
    x30       c9                            263
    x30       c10                           567
    x30       c12                           864
    x30       c13                           259
    x30       c19                           989
    x30       c52                           788
    x30       c57                           381
    x31       obj1                            1
    x31       c8                            995
    x31       c38                           108
    x31       c66                           768
    x32       obj1                            1
    x32       c9                            361
    x32       c11                           756
    x32       c15                           693
    x32       c17                           944
    x32       c22                           820
    x32       c27                           696
    x32       c38                           643
    x32       c45                           598
    x32       c66                           707
    x33       obj1                            1
    x33       c16                           781
    x33       c38                           641
    x33       c44                           736
    x33       c46                           485
    x33       c49                           635
    x33       c55                           592
    x33       c64                           919
    x33       c67                           920
    x34       obj1                            1
    x34       c1                            781
    x34       c26                           704
    x34       c50                           508
    x34       c54                           863
    x34       c64                           898
    x35       obj1                            1
    x35       c22                           103
    x35       c25                           424
    x35       c33                           171
    x35       c57                           924
    x35       c62                           773
    x35       c64                           802
    x36       obj1                            1
    x36       c34                           703
    x36       c38                           336
    x36       c42                           459
    x36       c67                           734
    x37       obj1                            1
    x37       c23                           533
    x37       c24                           117
    x37       c27                           217
    x37       c48                           649
    x37       c50                           495
    x37       c55                           526
    x37       c65                           919
    x37       c67                           794
    x38       obj1                            1
    x38       c4                            959
    x38       c7                            906
    x38       c11                           464
    x38       c16                           697
    x38       c20                           785
    x38       c23                           980
    x38       c29                           225
    x38       c45                           491
    x39       obj1                            1
    x39       c12                           687
    x39       c24                           420
    x39       c36                           654
    x39       c42                           747
    x39       c44                           176
    x39       c46                           849
    x39       c48                           767
    x39       c55                           144
    x40       obj1                            1
    x40       c10                           379
    x40       c11                           298
    x40       c17                           803
    x40       c46                           797
    x40       c47                           675
    x40       c51                           289
    x40       c54                           839
    x40       c62                           455
    x41       obj1                            1
    x41       c13                           453
    x41       c31                           242
    x41       c36                           738
    x41       c44                           173
    x42       obj1                            1
    x42       c13                           558
    x42       c40                           766
    x42       c45                           406
    x42       c62                           678
    x43       obj1                            1
    x43       c16                           355
    x43       c17                           969
    x43       c20                           642
    x43       c22                           944
    x43       c46                           538
    x43       c51                           144
    x43       c66                           169
    x44       obj1                            1
    x44       c3                            556
    x44       c8                            401
    x44       c12                           351
    x44       c17                           111
    x44       c24                           968
    x44       c33                           537
    x44       c44                           810
    x44       c47                           866
    x44       c54                           506
    x44       c55                           288
    x44       c70                           147
    x45       obj1                            1
    x45       c20                           446
    x45       c28                           757
    x45       c41                           934
    x45       c42                           309
    x45       c43                           153
    x45       c68                           602
    x46       obj1                            1
    x46       c14                           766
    x46       c16                           336
    x46       c19                           988
    x46       c28                           845
    x47       obj1                            1
    x47       c5                            615
    x47       c13                           773
    x47       c15                           366
    x47       c17                           818
    x48       obj1                            1
    x48       c3                            250
    x48       c12                           937
    x48       c22                           456
    x48       c23                           874
    x48       c30                           457
    x48       c31                           139
    x48       c35                           514
    x48       c50                           248
    x48       c64                           207
    x49       obj1                            1
    x49       c4                            556
    x49       c51                           476
    x49       c53                           475
    x49       c55                           447
    x49       c69                           832
    x50       obj1                            1
    x50       c7                            471
    x50       c22                           791
    x50       c24                           426
    x50       c29                           698
    x50       c31                           301
    x50       c35                           731
    x50       c37                           149
    x50       c41                           843
    x50       c45                           404
    x50       c54                           930
    x50       c68                           212
    x51       obj1                            1
    x51       c47                           102
    x51       c60                           766
    x52       obj1                            1
    x52       c1                            553
    x52       c13                           524
    x52       c36                           931
    x52       c48                           520
    x52       c51                           663
    x52       c63                           352
    x52       c66                           502
    x52       c68                           640
    x53       obj1                            1
    x53       c31                           973
    x53       c38                           952
    x53       c42                           110
    x53       c44                           529
    x53       c46                           989
    x53       c68                           844
    x54       obj1                            1
    x54       c6                            644
    x54       c9                            132
    x54       c12                           247
    x54       c14                           875
    x54       c16                           815
    x54       c27                           489
    x54       c33                           128
    x54       c37                           489
    x54       c40                           503
    x54       c50                           335
    x54       c58                           440
    x54       c67                           819
    x54       c69                           284
    x55       obj1                            1
    x55       c4                            991
    x55       c10                           275
    x55       c17                           264
    x55       c18                           587
    x55       c20                           481
    x55       c34                           659
    x55       c43                          1000
    x55       c53                           389
    x55       c58                           447
    x55       c66                           340
    x56       obj1                            1
    x56       c12                           633
    x56       c32                           708
    x56       c53                           117
    x56       c56                           249
    x57       obj1                            1
    x57       c5                            301
    x57       c28                           654
    x57       c29                           235
    x57       c36                           561
    x57       c67                           169
    x58       obj1                            1
    x58       c3                            397
    x58       c28                           208
    x58       c39                           362
    x58       c47                           197
    x58       c50                           471
    x58       c51                           576
    x58       c52                           381
    x58       c55                           718
    x59       obj1                            1
    x59       c19                           825
    x59       c21                           309
    x59       c26                           322
    x59       c33                           155
    x59       c38                           658
    x59       c52                           511
    x59       c63                           294
    x60       obj1                            1
    x60       c4                            449
    x60       c9                            763
    x60       c18                           580
    x60       c24                           179
    x60       c49                           865
    x60       c57                           182
    x60       c62                           937
    x60       c63                           334
    x60       c70                           187
    x61       obj1                            1
    x61       c8                            838
    x61       c14                           851
    x61       c15                           241
    x61       c30                           126
    x61       c33                           219
    x61       c34                           745
    x61       c35                           214
    x61       c37                           950
    x61       c53                           587
    x61       c58                           790
    x61       c59                           758
    x61       c61                           806
    x61       c70                           637
    x62       obj1                            1
    x62       c3                            553
    x62       c8                            875
    x62       c9                            828
    x62       c11                           120
    x62       c14                           666
    x62       c56                           372
    x62       c69                           989
    x63       obj1                            1
    x63       c2                            508
    x63       c27                           372
    x63       c28                           760
    x63       c32                           872
    x63       c38                           855
    x63       c64                           302
    x63       c69                           946
    x64       obj1                            1
    x64       c10                           316
    x64       c12                           723
    x64       c30                           511
    x64       c50                           900
    x64       c59                           928
    x65       obj1                            1
    x65       c16                           602
    x65       c19                           897
    x65       c31                           671
    x65       c51                           725
    x65       c56                           642
    x66       obj1                            1
    x66       c9                            642
    x66       c25                           334
    x66       c28                           197
    x66       c42                           736
    x66       c59                           394
    x67       obj1                            1
    x67       c3                            853
    x67       c5                            656
    x67       c20                           757
    x67       c24                           791
    x67       c32                           229
    x67       c37                           330
    x67       c46                           957
    x67       c50                           728
    x67       c59                           563
    x67       c60                           407
    x67       c68                           777
    x68       obj1                            1
    x68       c18                           640
    x68       c53                           385
    x68       c54                           279
    x69       obj1                            1
    x69       c1                            851
    x69       c18                           486
    x69       c39                           958
    x69       c54                           114
    x69       c59                           377
    x69       c60                           284
    x69       c65                           652
    x70       obj1                            1
    x70       c5                            872
    x70       c16                           615
    x70       c18                           871
    x70       c29                           629
    x70       c30                           574
    x70       c33                           663
    x70       c44                           746
    x70       c57                           129
    x70       c62                           752
    x70       c63                           323
    MARK0001  'MARKER'                 'INTEND'
RHS
    rhs       c1                           1673
    rhs       c2                           1795
    rhs       c3                           2638
    rhs       c4                           2427
    rhs       c5                           2659
    rhs       c6                           1914
    rhs       c7                           1325
    rhs       c8                           2041
    rhs       c9                           1584
    rhs       c10                          1683
    rhs       c11                          1870
    rhs       c12                          3252
    rhs       c13                          1533
    rhs       c14                          1766
    rhs       c15                          1315
    rhs       c16                          2794
    rhs       c17                          2944
    rhs       c18                          2821
    rhs       c19                          2525
    rhs       c20                          2663
    rhs       c21                          1159
    rhs       c22                          1751
    rhs       c23                          1592
    rhs       c24                          1915
    rhs       c25                          1051
    rhs       c26                          1080
    rhs       c27                          1387
    rhs       c28                          2656
    rhs       c29                          1661
    rhs       c30                          2004
    rhs       c31                          1964
    rhs       c32                          1319
    rhs       c33                          1996
    rhs       c34                          1515
    rhs       c35                           789
    rhs       c36                          1936
    rhs       c37                          2609
    rhs       c38                          2394
    rhs       c39                           977
    rhs       c40                          1034
    rhs       c41                          2834
    rhs       c42                          2097
    rhs       c43                          1308
    rhs       c44                          1923
    rhs       c45                           950
    rhs       c46                          2968
    rhs       c47                          1578
    rhs       c48                          1430
    rhs       c49                          1821
    rhs       c50                          2065
    rhs       c51                          2052
    rhs       c52                          1731
    rhs       c53                          1956
    rhs       c54                          2810
    rhs       c55                          2145
    rhs       c56                          1532
    rhs       c57                          1648
    rhs       c58                          1542
    rhs       c59                          2503
    rhs       c60                          1427
    rhs       c61                           969
    rhs       c62                          1798
    rhs       c63                          1122
    rhs       c64                          2226
    rhs       c65                          1335
    rhs       c66                          3213
    rhs       c67                          2998
    rhs       c68                          2143
    rhs       c69                          2396
    rhs       c70                          1262
BOUNDS
 LI bnd       x1        0
 LI bnd       x2        0
 LI bnd       x3        0
 LI bnd       x4        0
 LI bnd       x5        0
 LI bnd       x6        0
 LI bnd       x7        0
 LI bnd       x8        0
 LI bnd       x9        0
 LI bnd       x10       0
 LI bnd       x11       0
 LI bnd       x12       0
 LI bnd       x13       0
 LI bnd       x14       0
 LI bnd       x15       0
 LI bnd       x16       0
 LI bnd       x17       0
 LI bnd       x18       0
 LI bnd       x19       0
 LI bnd       x20       0
 LI bnd       x21       0
 LI bnd       x22       0
 LI bnd       x23       0
 LI bnd       x24       0
 LI bnd       x25       0
 LI bnd       x26       0
 LI bnd       x27       0
 LI bnd       x28       0
 LI bnd       x29       0
 LI bnd       x30       0
 LI bnd       x31       0
 LI bnd       x32       0
 LI bnd       x33       0
 LI bnd       x34       0
 LI bnd       x35       0
 LI bnd       x36       0
 LI bnd       x37       0
 LI bnd       x38       0
 LI bnd       x39       0
 LI bnd       x40       0
 LI bnd       x41       0
 LI bnd       x42       0
 LI bnd       x43       0
 LI bnd       x44       0
 LI bnd       x45       0
 LI bnd       x46       0
 LI bnd       x47       0
 LI bnd       x48       0
 LI bnd       x49       0
 LI bnd       x50       0
 LI bnd       x51       0
 LI bnd       x52       0
 LI bnd       x53       0
 LI bnd       x54       0
 LI bnd       x55       0
 LI bnd       x56       0
 LI bnd       x57       0
 LI bnd       x58       0
 LI bnd       x59       0
 LI bnd       x60       0
 LI bnd       x61       0
 LI bnd       x62       0
 LI bnd       x63       0
 LI bnd       x64       0
 LI bnd       x65       0
 LI bnd       x66       0
 LI bnd       x67       0
 LI bnd       x68       0
 LI bnd       x69       0
 LI bnd       x70       0
ENDATA
